#######################
Slurm job id: 17497813_255
Running on machine: p77
Running cmd: /nfs/shared/static-builds/gurobi1202 SOFTMEMLIMIT=125 MIPFocus=3 Presolve=2 TimeLimit=500 seed=14 /nfs/models/miplib2010/k16x240.mps.bz2
#######################
Set parameter TimeLimit to value 500
Set parameter SoftMemLimit to value 125
Set parameter MIPFocus to value 3
Set parameter LogFile to value 1202-MIPFocus3-Presolve2-TimeLimit500-k16x240-4.log
Set parameter Presolve to value 2
Set parameter Seed to value 14
Using license file /opt/gurobi/gurobi.lic

Gurobi Optimizer version 12.0.2 build v12.0.2rc0 (linux64 - "Ubuntu 22.04.4 LTS")
Copyright (c) 2025, Gurobi Optimization, LLC

Read MPS format model from file /nfs/models/miplib2010/k16x240.mps.bz2
Reading time = 0.00 seconds
k16x240: 256 rows, 480 columns, 960 nonzeros

Using Gurobi shared library /nfs/shared/static-builds/gurobi1202

CPU model: Intel(R) Xeon(R) E-2388G CPU @ 3.20GHz, instruction set [SSE2|AVX|AVX2|AVX512]
Thread count: 8 physical cores, 16 logical processors, using up to 16 threads

Non-default parameters:
TimeLimit  500
SoftMemLimit  125
MIPFocus  3
Presolve  2
Seed  14

Optimize a model with 256 rows, 480 columns and 960 nonzeros
Model fingerprint: 0x4e80885f
Variable types: 240 continuous, 240 integer (240 binary)
Coefficient statistics:
  Matrix range     [1e+00, 1e+03]
  Objective range  [1e+00, 1e+03]
  Bounds range     [1e+00, 1e+03]
  RHS range        [4e+00, 4e+02]
Found heuristic solution: objective 19431.000000
Presolve time: 0.00s
Presolved: 256 rows, 480 columns, 960 nonzeros
Variable types: 240 continuous, 240 integer (240 binary)
Root relaxation presolve removed 241 rows and 240 columns
Root relaxation presolved: 15 rows, 240 columns, 450 nonzeros


Root relaxation: objective 2.769838e+03, 16 iterations, 0.00 seconds (0.00 work units)

    Nodes    |    Current Node    |     Objective Bounds      |     Work
 Expl Unexpl |  Obj  Depth IntInf | Incumbent    BestBd   Gap | It/Node Time

     0     0 2769.83800    0   14 19431.0000 2769.83800  85.7%     -    0s
H    0     0                    11359.000000 2769.83800  75.6%     -    0s
H    0     0                    11252.000000 2769.83800  75.4%     -    0s
H    0     0                    11240.000000 8116.87580  27.8%     -    0s
H    0     0                    11110.000000 8116.87580  26.9%     -    0s
     0     0 8116.87580    0   26 11110.0000 8116.87580  26.9%     -    0s
H    0     0                    11044.000000 8182.85928  25.9%     -    0s
H    0     0                    10964.000000 8182.85928  25.4%     -    0s
H    0     0                    10917.000000 8590.83212  21.3%     -    0s
H    0     0                    10887.000000 8590.83212  21.1%     -    0s
     0     0 8747.58893    0   23 10887.0000 8747.58893  19.7%     -    0s
     0     0 8748.93137    0   20 10887.0000 8748.93137  19.6%     -    0s
     0     0 8810.95744    0   21 10887.0000 8810.95744  19.1%     -    0s
     0     0 8810.95744    0   18 10887.0000 8810.95744  19.1%     -    0s
     0     0 8993.52935    0   37 10887.0000 8993.52935  17.4%     -    0s
     0     0 8993.71463    0   35 10887.0000 8993.71463  17.4%     -    0s
H    0     0                    10883.000000 8993.71463  17.4%     -    0s
     0     0 9049.76823    0   26 10883.0000 9049.76823  16.8%     -    0s
     0     0 9169.39114    0   32 10883.0000 9169.39114  15.7%     -    0s
     0     0 9169.39114    0   32 10883.0000 9169.39114  15.7%     -    0s
H    0     0                    10864.000000 9169.39114  15.6%     -    0s
H    0     0                    10853.000000 9169.39114  15.5%     -    0s
H    0     0                    10826.000000 9169.39114  15.3%     -    0s
H    0     0                    10779.000000 9169.39114  14.9%     -    0s
H    0     0                    10732.000000 9169.39114  14.6%     -    0s
     0     2 9169.39114    0   32 10732.0000 9169.39114  14.6%     -    0s
H   55    57                    10711.000000 9355.68198  12.7%  62.2    0s
H   96   116                    10681.000000 9393.19949  12.1%  55.6    0s
H  619   659                    10674.000000 9575.59306  10.3%  39.8    0s
  4514  3196     cutoff   26      10674.0000 10285.0988  3.64%  75.2    5s
 18152  7900 10554.4933   26   24 10674.0000 10524.1845  1.40%  52.8   10s

Cutting planes:
  Gomory: 1
  Lift-and-project: 8
  Cover: 4
  Implied bound: 10
  Dual implied bound: 3
  MIR: 156
  Flow cover: 520
  Flow path: 29
  Zero half: 26
  Network: 23
  Relax-and-lift: 4

Explored 37264 nodes (1336922 simplex iterations) in 12.85 seconds (18.41 work units)
Thread count was 16 (of 16 available processors)

Solution count 10: 10674 10681 10711 ... 10887

Optimal solution found (tolerance 1.00e-04)
Best objective 1.067400000000e+04, best bound 1.067300000000e+04, gap 0.0094%
